70
1 0 27
2 0 19
2 1 13
3 0 16
3 1 15
3 2 31
4 0 39
4 1 2
4 2 12
4 3 13
5 0 27
5 1 40
6 0 4
6 1 5
6 2 20
6 3 13
6 4 30
7 2 2
7 3 29
7 4 11
8 1 19
8 2 22
8 3 14
8 4 4
8 5 38
8 6 1
8 7 1
9 0 6
9 1 38
9 2 17
9 3 35
9 4 26
9 5 13
9 7 13
9 8 33
10 0 28
10 1 31
10 2 21
10 3 34
10 4 13
10 6 20
10 7 6
10 9 18
11 1 23
11 4 3
11 5 40
11 7 31
11 8 21
11 9 31
11 10 6
12 1 15
12 2 40
12 3 38
12 4 6
12 5 37
12 6 40
12 7 19
12 10 19
13 0 33
13 5 35
13 7 1
13 9 17
13 12 2
14 0 26
14 1 32
14 3 15
14 4 20
14 5 18
14 6 36
14 7 8
14 8 33
14 9 3
14 11 16
14 12 27
14 13 40
15 0 35
15 1 25
15 2 18
15 3 6
15 5 36
15 6 30
15 8 31
15 10 5
15 11 5
15 13 7
16 0 34
16 1 16
16 2 13
16 3 24
16 4 11
16 5 5
16 6 32
16 8 17
16 9 16
16 10 33
16 11 8
16 12 28
16 13 35
16 14 8
17 1 16
17 2 12
17 3 7
17 5 10
17 7 30
17 8 2
17 9 21
17 10 30
17 12 30
17 13 1
17 16 22
18 0 9
18 1 8
18 2 3
18 5 37
18 6 32
18 7 23
18 8 35
18 9 18
18 10 30
18 11 1
18 12 10
18 16 23
18 17 39
19 0 14
19 1 30
19 2 18
19 4 13
19 6 39
19 7 7
19 8 18
19 9 22
19 10 25
19 12 8
19 13 36
19 16 14
19 17 21
20 0 11
20 2 10
20 3 32
20 5 30
20 6 1
20 7 29
20 8 10
20 10 38
20 11 38
20 12 18
20 13 27
20 14 34
20 16 17
20 17 36
20 18 2
20 19 3
21 1 28
21 3 30
21 4 26
21 5 5
21 6 1
21 8 36
21 9 24
21 10 34
21 11 23
21 13 37
21 15 33
21 17 30
21 19 8
21 20 7
22 1 33
22 5 23
22 6 22
22 7 8
22 8 16
22 10 25
22 11 16
22 13 18
22 14 3
22 15 29
22 16 16
22 17 37
22 18 8
22 19 38
22 20 32
23 0 35
23 1 21
23 5 35
23 7 13
23 11 26
23 12 1
23 15 40
23 16 25
23 17 4
23 18 11
23 19 15
23 20 4
23 22 4
24 0 7
24 2 36
24 3 36
24 4 39
24 6 25
24 7 3
24 8 12
24 9 8
24 11 15
24 15 18
24 16 19
24 18 27
24 20 38
24 23 28
25 0 27
25 1 5
25 4 19
25 5 23
25 6 1
25 8 34
25 9 16
25 10 2
25 12 6
25 13 30
25 16 40
25 17 6
25 19 22
25 21 6
25 22 3
25 23 34
25 24 2
26 1 6
26 2 7
26 3 23
26 5 2
26 6 29
26 7 21
26 8 28
26 10 22
26 11 8
26 12 29
26 16 37
26 17 32
26 19 20
26 20 39
26 21 27
26 24 27
26 25 11
27 0 19
27 1 19
27 2 11
27 5 12
27 6 16
27 8 6
27 9 1
27 14 32
27 15 33
27 16 4
27 17 22
27 19 12
27 21 35
27 23 2
27 24 26
27 25 8
27 26 19
28 0 31
28 1 7
28 3 26
28 4 24
28 5 30
28 6 7
28 7 11
28 9 22
28 10 19
28 11 7
28 16 2
28 17 31
28 18 10
28 20 30
28 21 13
28 22 31
28 23 35
28 24 29
28 25 24
28 26 16
28 27 21
29 0 27
29 3 32
29 4 32
29 6 8
29 7 33
29 8 32
29 9 15
29 10 34
29 11 24
29 12 22
29 14 30
29 15 35
29 16 19
29 18 33
29 19 28
29 20 36
29 21 22
29 23 2
29 25 30
29 26 24
29 27 27
29 28 29
30 0 24
30 1 38
30 2 12
30 4 10
30 5 5
30 7 27
30 8 30
30 10 8
30 11 2
30 12 1
30 14 5
30 16 4
30 17 25
30 18 25
30 20 6
30 21 30
30 22 13
30 23 19
30 24 22
30 25 40
30 26 18
30 27 36
30 28 20
31 1 27
31 6 9
31 7 32
31 8 3
31 11 5
31 12 39
31 13 3
31 14 3
31 16 13
31 17 38
31 18 22
31 19 1
31 20 18
31 22 24
31 23 29
31 24 35
31 25 17
31 28 21
31 29 22
32 0 1
32 3 22
32 4 26
32 5 14
32 6 27
32 8 29
32 10 19
32 13 34
32 15 12
32 16 29
32 17 24
32 18 20
32 21 1
32 22 8
32 24 4
32 25 13
32 26 28
32 27 8
32 30 18
33 2 32
33 4 33
33 6 11
33 10 31
33 13 3
33 15 11
33 16 15
33 17 28
33 18 34
33 19 3
33 20 3
33 21 38
33 22 35
33 26 7
33 31 39
34 0 19
34 1 16
34 3 22
34 9 7
34 10 2
34 12 37
34 14 35
34 15 17
34 16 8
34 18 1
34 19 30
34 20 38
34 21 29
34 22 34
34 23 17
34 26 33
34 28 5
34 29 33
34 31 25
34 32 1
35 0 17
35 1 29
35 2 27
35 3 40
35 4 21
35 5 30
35 6 34
35 7 31
35 8 11
35 9 8
35 11 1
35 15 5
35 17 9
35 18 14
35 19 22
35 20 33
35 21 29
35 22 21
35 23 25
35 26 7
35 27 24
35 28 39
35 30 8
35 31 36
35 32 23
35 34 11
36 0 32
36 2 28
36 3 38
36 5 30
36 7 40
36 8 24
36 9 25
36 10 14
36 11 35
36 13 29
36 15 9
36 16 15
36 17 31
36 18 15
36 19 17
36 20 33
36 21 39
36 22 24
36 23 30
36 25 1
36 27 33
36 29 12
36 30 7
36 31 25
36 32 24
36 33 2
36 34 22
36 35 39
37 0 26
37 1 30
37 3 21
37 4 36
37 5 24
37 6 35
37 7 21
37 9 8
37 10 6
37 11 7
37 13 13
37 14 19
37 16 35
37 18 26
37 19 26
37 20 29
37 22 12
37 23 40
37 24 35
37 25 17
37 26 34
37 27 38
37 28 9
37 29 8
37 30 20
37 33 38
37 34 31
37 35 18
37 36 29
38 0 33
38 1 35
38 3 25
38 4 25
38 6 5
38 7 34
38 9 19
38 11 20
38 12 37
38 13 7
38 15 21
38 16 38
38 17 27
38 18 24
38 20 1
38 21 32
38 22 36
38 23 34
38 25 38
38 27 7
38 28 15
38 30 40
38 32 9
38 33 34
38 36 31
38 37 34
39 0 9
39 1 1
39 2 17
39 5 18
39 7 7
39 8 37
39 12 15
39 13 11
39 14 37
39 15 17
39 17 14
39 20 26
39 22 6
39 23 8
39 24 32
39 26 13
39 27 21
39 28 13
39 30 20
39 31 22
39 33 25
39 35 10
39 36 33
40 0 12
40 1 5
40 3 24
40 6 2
40 8 1
40 10 13
40 13 22
40 14 26
40 15 24
40 16 34
40 18 24
40 20 27
40 21 9
40 22 3
40 23 6
40 25 4
40 27 18
40 28 7
40 31 34
40 32 11
40 34 23
40 38 17
41 0 15
41 1 32
41 3 15
41 4 28
41 5 4
41 7 13
41 8 22
41 11 11
41 12 18
41 14 14
41 15 14
41 17 24
41 18 35
41 19 7
41 21 34
41 22 4
41 23 21
41 27 10
41 30 9
41 31 10
41 32 7
41 33 4
41 34 40
41 35 40
41 36 35
41 37 40
41 39 23
41 40 9
42 0 33
42 1 26
42 3 23
42 5 28
42 7 8
42 9 40
42 10 20
42 11 23
42 12 39
42 14 4
42 15 7
42 16 19
42 17 37
42 18 40
42 19 11
42 20 12
42 21 4
42 22 8
42 24 23
42 26 16
42 27 28
42 28 35
42 29 21
42 30 10
42 31 34
42 32 28
42 33 17
42 34 14
42 35 8
42 36 40
42 37 18
42 38 21
42 40 7
43 0 5
43 1 7
43 2 24
43 3 24
43 5 33
43 6 26
43 9 33
43 10 32
43 11 15
43 13 21
43 14 17
43 17 39
43 18 17
43 19 25
43 20 16
43 21 3
43 22 39
43 24 6
43 26 22
43 27 10
43 29 4
43 30 12
43 31 19
43 32 26
43 33 8
43 34 27
43 35 1
43 38 5
43 39 31
43 40 34
43 42 13
44 0 21
44 1 16
44 2 8
44 3 18
44 5 28
44 7 11
44 8 21
44 9 12
44 12 7
44 13 12
44 14 29
44 17 40
44 19 7
44 20 34
44 22 18
44 25 2
44 28 27
44 30 18
44 31 20
44 32 34
44 34 12
44 35 36
44 36 16
44 38 12
44 39 5
44 40 27
44 41 33
44 43 7
45 0 3
45 1 17
45 2 14
45 5 9
45 6 30
45 7 15
45 8 10
45 9 34
45 11 40
45 12 19
45 14 19
45 17 12
45 18 16
45 19 24
45 20 8
45 21 1
45 22 39
45 25 4
45 26 29
45 27 8
45 28 16
45 29 35
45 30 33
45 31 10
45 36 27
45 37 38
45 39 32
45 40 38
45 41 11
45 42 37
45 43 21
46 0 17
46 1 4
46 2 7
46 3 8
46 4 27
46 8 7
46 9 9
46 12 23
46 13 29
46 14 26
46 15 27
46 16 16
46 17 20
46 19 25
46 20 31
46 21 2
46 22 40
46 24 38
46 26 7
46 27 34
46 28 2
46 30 22
46 32 25
46 33 3
46 34 39
46 35 30
46 36 8
46 37 1
46 39 32
46 42 40
46 44 40
46 45 26
47 0 25
47 1 23
47 2 11
47 4 25
47 5 11
47 6 10
47 7 8
47 8 34
47 10 9
47 11 34
47 12 4
47 13 16
47 15 23
47 17 8
47 19 6
47 20 39
47 21 8
47 25 8
47 27 24
47 28 17
47 29 39
47 30 31
47 32 24
47 33 3
47 34 32
47 35 19
47 36 38
47 37 12
47 38 14
47 39 29
47 40 11
47 41 39
47 43 28
47 46 37
48 1 39
48 3 15
48 4 30
48 5 17
48 6 14
48 8 16
48 9 7
48 10 35
48 13 15
48 15 3
48 16 31
48 19 37
48 20 4
48 23 22
48 25 18
48 26 34
48 28 33
48 29 1
48 30 13
48 31 37
48 33 39
48 34 1
48 35 6
48 37 7
48 38 25
48 40 34
48 41 10
48 43 21
48 44 40
48 46 18
48 47 30
49 0 11
49 2 34
49 3 28
49 5 39
49 6 36
49 7 31
49 8 20
49 10 23
49 11 7
49 12 10
49 15 5
49 16 40
49 17 17
49 18 38
49 19 2
49 20 24
49 22 9
49 24 25
49 25 21
49 26 3
49 27 26
49 28 14
49 29 8
49 32 12
49 33 31
49 36 38
49 37 29
49 38 3
49 39 10
49 42 33
49 44 23
49 45 36
49 46 18
49 47 14
50 2 3
50 3 10
50 4 11
50 5 36
50 7 22
50 9 25
50 10 6
50 11 32
50 12 1
50 14 7
50 15 38
50 17 26
50 18 27
50 19 30
50 21 1
50 22 19
50 23 40
50 24 19
50 25 5
50 27 28
50 29 27
50 30 16
50 31 31
50 32 14
50 33 40
50 35 1
50 36 24
50 38 16
50 43 3
50 44 29
50 45 20
50 47 9
50 48 22
51 0 8
51 1 16
51 2 38
51 5 15
51 6 26
51 8 19
51 9 10
51 10 28
51 11 29
51 13 34
51 14 10
51 19 14
51 20 18
51 21 17
51 22 35
51 23 6
51 24 18
51 25 37
51 26 21
51 27 27
51 28 29
51 29 18
51 30 21
51 31 32
51 33 29
51 35 4
51 36 10
51 37 37
51 38 40
51 41 22
51 43 40
51 44 22
51 46 13
51 47 18
51 48 32
51 49 29
51 50 1
52 0 22
52 1 36
52 3 23
52 5 37
52 6 34
52 7 19
52 8 6
52 9 10
52 10 18
52 11 37
52 13 16
52 15 39
52 17 30
52 18 23
52 19 37
52 20 22
52 22 19
52 24 12
52 26 4
52 27 7
52 28 1
52 31 15
52 32 35
52 33 28
52 34 31
52 35 28
52 36 33
52 37 26
52 38 33
52 39 21
52 40 7
52 41 12
52 42 31
52 44 32
52 46 11
52 47 38
52 48 1
52 51 20
53 0 25
53 1 37
53 4 6
53 5 22
53 7 12
53 8 14
53 9 36
53 10 17
53 11 2
53 12 15
53 13 4
53 14 14
53 15 38
53 16 30
53 17 5
53 18 31
53 19 18
53 24 32
53 26 40
53 27 2
53 30 5
53 32 19
53 33 21
53 35 12
53 37 9
53 38 14
53 39 16
53 41 12
53 42 14
53 46 8
53 48 16
53 50 40
53 51 25
53 52 37
54 0 20
54 1 29
54 2 34
54 3 17
54 4 36
54 5 26
54 6 14
54 7 36
54 11 4
54 12 33
54 14 23
54 15 31
54 16 21
54 18 27
54 19 27
54 21 13
54 22 40
54 25 14
54 26 38
54 27 8
54 31 38
54 32 40
54 33 28
54 34 20
54 35 9
54 37 30
54 38 31
54 39 20
54 44 16
54 45 37
54 46 24
54 47 37
54 49 40
54 50 5
54 52 19
54 53 10
55 0 28
55 2 34
55 3 20
55 4 34
55 6 34
55 8 8
55 9 4
55 10 6
55 13 33
55 14 29
55 15 31
55 16 8
55 18 6
55 20 17
55 21 9
55 22 9
55 23 30
55 24 6
55 25 25
55 26 22
55 27 1
55 29 37
55 30 20
55 31 1
55 33 26
55 34 13
55 35 14
55 36 19
55 37 2
55 39 33
55 40 39
55 41 34
55 42 17
55 44 23
55 45 4
55 49 26
55 53 27
55 54 12
56 1 25
56 3 5
56 5 29
56 6 7
56 7 22
56 8 7
56 9 7
56 10 39
56 11 34
56 13 12
56 14 10
56 17 39
56 18 29
56 19 39
56 20 16
56 22 29
56 24 36
56 26 33
56 27 2
56 31 3
56 32 25
56 35 19
56 36 23
56 37 36
56 38 20
56 39 9
56 40 13
56 47 9
56 49 1
56 50 1
56 53 15
56 54 27
57 0 33
57 1 34
57 2 24
57 3 15
57 4 15
57 5 17
57 6 39
57 7 12
57 10 30
57 12 34
57 13 20
57 14 2
57 15 24
57 17 39
57 19 24
57 22 35
57 23 36
57 24 37
57 26 34
57 27 28
57 29 35
57 30 3
57 31 30
57 32 4
57 33 20
57 35 14
57 38 39
57 39 39
57 40 13
57 41 30
57 42 32
57 44 23
57 45 6
57 46 11
57 47 38
57 50 18
57 52 32
57 53 3
57 54 17
57 55 11
57 56 17
58 0 36
58 1 7
58 2 34
58 4 19
58 5 14
58 6 23
58 7 10
58 8 19
58 10 22
58 11 39
58 13 6
58 14 17
58 15 37
58 16 36
58 17 2
58 18 39
58 20 6
58 21 34
58 22 11
58 23 8
58 25 32
58 27 6
58 28 5
58 30 37
58 31 40
58 32 33
58 35 33
58 36 8
58 38 4
58 40 14
58 41 20
58 42 40
58 43 16
58 44 9
58 45 32
58 46 29
58 49 14
58 50 14
58 51 26
58 52 34
58 53 27
58 54 24
58 55 18
58 56 5
58 57 19
59 0 25
59 1 14
59 3 10
59 5 3
59 6 39
59 7 7
59 8 30
59 9 16
59 10 40
59 11 11
59 12 18
59 14 25
59 17 28
59 18 36
59 19 33
59 20 1
59 23 19
59 24 22
59 25 29
59 26 24
59 28 1
59 29 11
59 30 35
59 31 36
59 32 37
59 33 12
59 34 30
59 35 31
59 36 26
59 37 18
59 38 22
59 40 36
59 42 15
59 43 34
59 45 24
59 46 12
59 47 17
59 50 3
59 51 35
59 52 32
59 54 32
59 56 1
59 57 6
59 58 16
60 2 24
60 3 6
60 4 30
60 7 22
60 8 16
60 9 23
60 10 11
60 11 14
60 13 40
60 14 29
60 17 26
60 18 20
60 19 16
60 20 29
60 21 36
60 23 34
60 25 23
60 26 19
60 27 39
60 29 10
60 30 8
60 33 35
60 34 4
60 35 16
60 36 19
60 38 12
60 39 27
60 40 14
60 41 29
60 42 19
60 44 1
60 45 32
60 46 39
60 47 34
60 49 17
60 50 31
60 53 27
60 54 11
60 55 39
60 56 26
60 57 6
60 58 3
60 59 21
61 0 39
61 2 32
61 3 5
61 4 17
61 5 29
61 6 7
61 7 34
61 8 24
61 9 33
61 11 12
61 13 10
61 17 22
61 19 1
61 21 37
61 22 10
61 23 22
61 24 10
61 25 11
61 26 35
61 28 31
61 31 27
61 33 7
61 34 29
61 35 37
61 36 5
61 37 24
61 41 2
61 42 4
61 43 36
61 44 30
61 46 36
61 47 40
61 48 28
61 49 8
61 50 16
61 51 16
61 53 16
61 54 18
61 55 1
61 56 4
61 58 29
61 59 38
61 60 31
62 0 16
62 4 34
62 5 22
62 7 1
62 8 3
62 9 40
62 10 26
62 11 21
62 13 12
62 14 19
62 17 10
62 18 21
62 20 6
62 21 20
62 22 5
62 23 18
62 24 16
62 25 13
62 26 14
62 29 37
62 31 3
62 32 8
62 36 32
62 39 9
62 40 20
62 42 28
62 44 7
62 45 17
62 46 9
62 50 16
62 51 31
62 52 39
62 53 21
62 55 21
62 56 31
62 57 29
62 60 37
63 0 35
63 1 20
63 2 11
63 3 15
63 4 14
63 5 34
63 6 34
63 7 5
63 8 36
63 9 3
63 10 19
63 11 9
63 12 5
63 13 34
63 14 30
63 15 9
63 16 12
63 19 34
63 20 1
63 21 17
63 22 27
63 24 13
63 25 30
63 26 18
63 27 27
63 29 33
63 30 14
63 31 6
63 32 31
63 33 34
63 34 5
63 35 16
63 37 35
63 38 30
63 43 33
63 44 5
63 45 36
63 47 26
63 48 4
63 49 7
63 52 4
63 54 22
63 55 27
63 56 28
63 57 12
63 58 13
63 59 21
63 60 19
63 61 8
64 0 16
64 1 26
64 3 31
64 4 38
64 5 4
64 6 31
64 7 21
64 9 2
64 10 30
64 11 36
64 14 35
64 15 4
64 16 20
64 17 34
64 18 38
64 19 6
64 22 7
64 23 4
64 24 31
64 25 30
64 26 37
64 27 23
64 28 39
64 29 4
64 30 37
64 31 7
64 32 19
64 34 19
64 35 31
64 36 17
64 37 36
64 39 28
64 42 18
64 43 5
64 44 20
64 45 22
64 46 5
64 47 32
64 49 24
64 50 27
64 52 33
64 53 26
64 59 38
64 61 25
64 62 5
64 63 10
65 0 21
65 1 28
65 5 36
65 6 17
65 7 35
65 8 25
65 10 30
65 11 12
65 12 30
65 13 4
65 14 40
65 15 30
65 18 6
65 19 24
65 20 9
65 21 22
65 22 26
65 24 19
65 26 30
65 27 21
65 28 13
65 29 36
65 30 19
65 31 21
65 32 11
65 33 25
65 34 26
65 35 19
65 36 1
65 37 11
65 39 31
65 40 12
65 41 36
65 42 16
65 43 14
65 44 21
65 45 29
65 46 20
65 47 14
65 48 18
65 49 9
65 54 4
65 55 6
65 56 26
65 57 38
65 58 19
65 59 21
65 60 33
65 62 27
65 63 35
65 64 28
66 1 5
66 3 34
66 5 37
66 6 22
66 7 27
66 8 36
66 10 7
66 11 11
66 12 2
66 14 11
66 15 15
66 16 21
66 17 36
66 20 8
66 21 32
66 22 37
66 23 23
66 24 35
66 25 19
66 27 2
66 28 37
66 29 3
66 31 11
66 33 27
66 34 28
66 35 31
66 36 5
66 37 4
66 38 21
66 40 6
66 43 10
66 45 30
66 47 14
66 48 13
66 49 18
66 51 20
66 53 36
66 55 39
66 57 15
66 60 34
66 62 2
66 63 29
66 64 10
67 0 23
67 1 40
67 3 18
67 4 12
67 5 1
67 7 20
67 11 6
67 12 1
67 13 8
67 14 11
67 17 35
67 18 10
67 19 4
67 20 3
67 21 13
67 22 31
67 23 7
67 24 4
67 25 18
67 26 38
67 27 32
67 28 31
67 29 40
67 30 35
67 32 20
67 33 5
67 35 20
67 36 31
67 37 24
67 38 7
67 40 13
67 41 25
67 42 5
67 44 39
67 48 38
67 49 38
67 50 24
67 51 33
67 52 9
67 55 21
67 56 5
67 58 5
67 59 7
67 60 23
67 61 30
67 62 1
67 63 8
67 64 11
67 65 32
67 66 29
68 1 10
68 2 35
68 4 17
68 9 39
68 11 36
68 12 7
68 13 11
68 14 37
68 15 19
68 16 15
68 17 24
68 19 8
68 20 11
68 22 22
68 24 34
68 25 33
68 26 18
68 28 15
68 29 40
68 30 2
68 31 21
68 32 21
68 34 31
68 36 21
68 37 21
68 39 20
68 40 2
68 41 36
68 42 39
68 43 17
68 44 14
68 45 16
68 46 33
68 48 21
68 49 4
68 50 1
68 51 4
68 52 33
68 53 30
68 54 20
68 55 20
68 56 23
68 58 37
68 59 36
68 61 27
68 62 3
68 63 31
68 64 10
68 66 8
68 67 39
69 0 5
69 1 19
69 6 16
69 7 26
69 8 8
69 10 23
69 11 13
69 12 19
69 14 17
69 15 12
69 16 39
69 19 10
69 20 14
69 21 21
69 23 17
69 24 7
69 25 23
69 26 20
69 27 27
69 29 21
69 30 4
69 31 6
69 33 35
69 34 9
69 35 30
69 36 36
69 38 1
69 40 34
69 42 9
69 43 8
69 44 8
69 45 22
69 46 32
69 47 11
69 48 35
69 49 15
69 50 18
69 51 29
69 52 18
69 53 39
69 55 24
69 56 20
69 57 11
69 59 1
69 60 10
69 61 33
69 63 2
69 64 23
69 67 12
69 68 18
